p cnf 200 1110
-101 97 0
-101 28 0
-101 -27 0
-101 -70 0
-101 11 0
-101 -25 0
-101 8 0
-101 -62 0
-101 65 0
-101 -79 0
101 -97 -28 27 70 -11 25 -8 62 -65 79 0
-102 -82 0
-102 51 0
-102 -73 0
-102 22 0
-102 -60 0
-102 7 0
-102 -39 0
-102 89 0
-102 75 0
-102 -81 0
102 82 -51 73 -22 60 -7 39 -89 -75 81 0
-103 -46 0
-103 6 0
-103 -72 0
-103 8 0
-103 51 0
-103 -99 0
-103 -75 0
-103 -96 0
-103 -84 0
-103 70 0
103 46 -6 72 -8 -51 99 75 96 84 -70 0
-104 80 0
-104 -39 0
-104 18 0
-104 -2 0
-104 -33 0
-104 53 0
-104 43 0
-104 -63 0
-104 41 0
-104 -96 0
104 -80 39 -18 2 33 -53 -43 63 -41 96 0
-105 36 0
-105 -30 0
-105 -42 0
-105 -100 0
-105 11 0
-105 50 0
-105 -95 0
-105 67 0
-105 57 0
-105 75 0
105 -36 30 42 100 -11 -50 95 -67 -57 -75 0
-106 51 0
-106 93 0
-106 65 0
-106 74 0
-106 -84 0
-106 20 0
-106 -15 0
-106 94 0
-106 52 0
-106 77 0
106 -51 -93 -65 -74 84 -20 15 -94 -52 -77 0
-107 97 0
-107 16 0
-107 79 0
-107 -85 0
-107 -77 0
-107 -51 0
-107 -66 0
-107 17 0
-107 -92 0
-107 -9 0
107 -97 -16 -79 85 77 51 66 -17 92 9 0
-108 -89 0
-108 98 0
-108 -20 0
-108 -23 0
-108 58 0
-108 5 0
-108 3 0
-108 73 0
-108 27 0
-108 -95 0
108 89 -98 20 23 -58 -5 -3 -73 -27 95 0
-109 -49 0
-109 7 0
-109 95 0
-109 -25 0
-109 37 0
-109 -20 0
-109 -64 0
-109 -73 0
-109 40 0
-109 67 0
109 49 -7 -95 25 -37 20 64 73 -40 -67 0
-110 -58 0
-110 15 0
-110 92 0
-110 -44 0
-110 3 0
-110 -69 0
-110 -98 0
-110 39 0
-110 -68 0
-110 -22 0
110 58 -15 -92 44 -3 69 98 -39 68 22 0
101 102 103 104 105 106 107 108 109 110 0
-111 -30 0
-111 22 0
-111 72 0
-111 -70 0
-111 89 0
-111 -2 0
-111 -53 0
-111 1 0
-111 27 0
-111 43 0
111 30 -22 -72 70 -89 2 53 -1 -27 -43 0
-112 -79 0
-112 39 0
-112 27 0
-112 -37 0
-112 87 0
-112 -1 0
-112 -81 0
-112 -2 0
-112 80 0
-112 44 0
112 79 -39 -27 37 -87 1 81 2 -80 -44 0
-113 -98 0
-113 -79 0
-113 -97 0
-113 -40 0
-113 -34 0
-113 55 0
-113 -24 0
-113 95 0
-113 53 0
-113 15 0
113 98 79 97 40 34 -55 24 -95 -53 -15 0
-114 100 0
-114 -54 0
-114 -2 0
-114 -62 0
-114 71 0
-114 83 0
-114 -81 0
-114 -30 0
-114 72 0
-114 -57 0
114 -100 54 2 62 -71 -83 81 30 -72 57 0
-115 -14 0
-115 -69 0
-115 9 0
-115 3 0
-115 -42 0
-115 -5 0
-115 -26 0
-115 76 0
-115 89 0
-115 68 0
115 14 69 -9 -3 42 5 26 -76 -89 -68 0
-116 -8 0
-116 -48 0
-116 30 0
-116 52 0
-116 -58 0
-116 25 0
-116 -85 0
-116 26 0
-116 -19 0
-116 78 0
116 8 48 -30 -52 58 -25 85 -26 19 -78 0
-117 81 0
-117 91 0
-117 -89 0
-117 83 0
-117 -73 0
-117 62 0
-117 -79 0
-117 42 0
-117 -14 0
-117 -82 0
117 -81 -91 89 -83 73 -62 79 -42 14 82 0
-118 -63 0
-118 75 0
-118 -67 0
-118 98 0
-118 -12 0
-118 -36 0
-118 -99 0
-118 -20 0
-118 -32 0
-118 53 0
118 63 -75 67 -98 12 36 99 20 32 -53 0
-119 -11 0
-119 -16 0
-119 59 0
-119 69 0
-119 13 0
-119 -19 0
-119 7 0
-119 -63 0
-119 93 0
-119 -33 0
119 11 16 -59 -69 -13 19 -7 63 -93 33 0
-120 -69 0
-120 81 0
-120 -67 0
-120 -89 0
-120 21 0
-120 -44 0
-120 -94 0
-120 -64 0
-120 74 0
-120 9 0
120 69 -81 67 89 -21 44 94 64 -74 -9 0
111 112 113 114 115 116 117 118 119 120 0
-121 76 0
-121 -15 0
-121 -1 0
-121 8 0
-121 18 0
-121 75 0
-121 23 0
-121 64 0
-121 -65 0
-121 21 0
121 -76 15 1 -8 -18 -75 -23 -64 65 -21 0
-122 -22 0
-122 30 0
-122 -99 0
-122 -57 0
-122 -2 0
-122 44 0
-122 88 0
-122 -75 0
-122 25 0
-122 -37 0
122 22 -30 99 57 2 -44 -88 75 -25 37 0
-123 71 0
-123 -79 0
-123 -14 0
-123 -92 0
-123 -1 0
-123 -97 0
-123 -62 0
-123 72 0
-123 -24 0
-123 -45 0
123 -71 79 14 92 1 97 62 -72 24 45 0
-124 -50 0
-124 -5 0
-124 -13 0
-124 -39 0
-124 -3 0
-124 65 0
-124 66 0
-124 -64 0
-124 43 0
-124 -68 0
124 50 5 13 39 3 -65 -66 64 -43 68 0
-125 68 0
-125 -54 0
-125 38 0
-125 -5 0
-125 -29 0
-125 -95 0
-125 -22 0
-125 21 0
-125 94 0
-125 -27 0
125 -68 54 -38 5 29 95 22 -21 -94 27 0
-126 77 0
-126 14 0
-126 38 0
-126 -17 0
-126 -31 0
-126 30 0
-126 65 0
-126 -53 0
-126 -64 0
-126 19 0
126 -77 -14 -38 17 31 -30 -65 53 64 -19 0
-127 -77 0
-127 -1 0
-127 -14 0
-127 -33 0
-127 -84 0
-127 74 0
-127 80 0
-127 -60 0
-127 64 0
-127 -3 0
127 77 1 14 33 84 -74 -80 60 -64 3 0
-128 12 0
-128 17 0
-128 -8 0
-128 10 0
-128 86 0
-128 64 0
-128 77 0
-128 1 0
-128 -98 0
-128 -92 0
128 -12 -17 8 -10 -86 -64 -77 -1 98 92 0
-129 -42 0
-129 -10 0
-129 -29 0
-129 81 0
-129 -47 0
-129 50 0
-129 -23 0
-129 -53 0
-129 75 0
-129 5 0
129 42 10 29 -81 47 -50 23 53 -75 -5 0
-130 50 0
-130 72 0
-130 33 0
-130 -96 0
-130 -2 0
-130 39 0
-130 -29 0
-130 69 0
-130 -31 0
-130 -27 0
130 -50 -72 -33 96 2 -39 29 -69 31 27 0
121 122 123 124 125 126 127 128 129 130 0
-131 -83 0
-131 -28 0
-131 -80 0
-131 32 0
-131 -35 0
-131 44 0
-131 95 0
-131 -96 0
-131 -67 0
-131 99 0
131 83 28 80 -32 35 -44 -95 96 67 -99 0
-132 60 0
-132 -48 0
-132 -86 0
-132 -35 0
-132 -75 0
-132 -72 0
-132 57 0
-132 63 0
-132 73 0
-132 79 0
132 -60 48 86 35 75 72 -57 -63 -73 -79 0
-133 -38 0
-133 -1 0
-133 3 0
-133 88 0
-133 -17 0
-133 -18 0
-133 57 0
-133 77 0
-133 -54 0
-133 37 0
133 38 1 -3 -88 17 18 -57 -77 54 -37 0
-134 36 0
-134 95 0
-134 -44 0
-134 63 0
-134 -40 0
-134 -56 0
-134 -11 0
-134 -59 0
-134 -14 0
-134 2 0
134 -36 -95 44 -63 40 56 11 59 14 -2 0
-135 -62 0
-135 79 0
-135 46 0
-135 -22 0
-135 86 0
-135 61 0
-135 -70 0
-135 -42 0
-135 56 0
-135 -47 0
135 62 -79 -46 22 -86 -61 70 42 -56 47 0
-136 -77 0
-136 5 0
-136 91 0
-136 -39 0
-136 48 0
-136 23 0
-136 63 0
-136 -3 0
-136 -44 0
-136 46 0
136 77 -5 -91 39 -48 -23 -63 3 44 -46 0
-137 34 0
-137 98 0
-137 -37 0
-137 6 0
-137 -3 0
-137 92 0
-137 -4 0
-137 8 0
-137 57 0
-137 89 0
137 -34 -98 37 -6 3 -92 4 -8 -57 -89 0
-138 -93 0
-138 2 0
-138 20 0
-138 -30 0
-138 53 0
-138 73 0
-138 -83 0
-138 90 0
-138 -77 0
-138 81 0
138 93 -2 -20 30 -53 -73 83 -90 77 -81 0
-139 74 0
-139 18 0
-139 -17 0
-139 -65 0
-139 30 0
-139 57 0
-139 -13 0
-139 20 0
-139 16 0
-139 -52 0
139 -74 -18 17 65 -30 -57 13 -20 -16 52 0
-140 -23 0
-140 -52 0
-140 -29 0
-140 -11 0
-140 -26 0
-140 17 0
-140 96 0
-140 -77 0
-140 68 0
-140 -82 0
140 23 52 29 11 26 -17 -96 77 -68 82 0
131 132 133 134 135 136 137 138 139 140 0
-141 81 0
-141 -1 0
-141 -60 0
-141 -90 0
-141 71 0
-141 93 0
-141 40 0
-141 32 0
-141 38 0
-141 34 0
141 -81 1 60 90 -71 -93 -40 -32 -38 -34 0
-142 -73 0
-142 98 0
-142 22 0
-142 63 0
-142 -18 0
-142 90 0
-142 -23 0
-142 65 0
-142 78 0
-142 21 0
142 73 -98 -22 -63 18 -90 23 -65 -78 -21 0
-143 98 0
-143 -70 0
-143 -42 0
-143 87 0
-143 -22 0
-143 57 0
-143 -82 0
-143 -86 0
-143 49 0
-143 35 0
143 -98 70 42 -87 22 -57 82 86 -49 -35 0
-144 96 0
-144 23 0
-144 -30 0
-144 -6 0
-144 15 0
-144 42 0
-144 45 0
-144 25 0
-144 -9 0
-144 -5 0
144 -96 -23 30 6 -15 -42 -45 -25 9 5 0
-145 75 0
-145 -63 0
-145 -68 0
-145 69 0
-145 1 0
-145 3 0
-145 -12 0
-145 -8 0
-145 84 0
-145 -78 0
145 -75 63 68 -69 -1 -3 12 8 -84 78 0
-146 -87 0
-146 29 0
-146 -72 0
-146 -88 0
-146 23 0
-146 -11 0
-146 -80 0
-146 -53 0
-146 15 0
-146 -50 0
146 87 -29 72 88 -23 11 80 53 -15 50 0
-147 66 0
-147 25 0
-147 -14 0
-147 19 0
-147 49 0
-147 31 0
-147 -70 0
-147 -59 0
-147 46 0
-147 9 0
147 -66 -25 14 -19 -49 -31 70 59 -46 -9 0
-148 61 0
-148 -76 0
-148 -73 0
-148 6 0
-148 43 0
-148 -66 0
-148 22 0
-148 -55 0
-148 54 0
-148 -47 0
148 -61 76 73 -6 -43 66 -22 55 -54 47 0
-149 -32 0
-149 -70 0
-149 -92 0
-149 -59 0
-149 87 0
-149 -9 0
-149 56 0
-149 -16 0
-149 -99 0
-149 44 0
149 32 70 92 59 -87 9 -56 16 99 -44 0
-150 16 0
-150 43 0
-150 -78 0
-150 -2 0
-150 -60 0
-150 -96 0
-150 38 0
-150 -83 0
-150 -81 0
-150 17 0
150 -16 -43 78 2 60 96 -38 83 81 -17 0
141 142 143 144 145 146 147 148 149 150 0
-151 93 0
-151 44 0
-151 -65 0
-151 61 0
-151 -25 0
-151 80 0
-151 -57 0
-151 -81 0
-151 -87 0
-151 46 0
151 -93 -44 65 -61 25 -80 57 81 87 -46 0
-152 33 0
-152 -85 0
-152 -100 0
-152 -46 0
-152 32 0
-152 -72 0
-152 36 0
-152 21 0
-152 -97 0
-152 77 0
152 -33 85 100 46 -32 72 -36 -21 97 -77 0
-153 34 0
-153 -21 0
-153 86 0
-153 -64 0
-153 -45 0
-153 99 0
-153 -54 0
-153 -27 0
-153 2 0
-153 91 0
153 -34 21 -86 64 45 -99 54 27 -2 -91 0
-154 -63 0
-154 -58 0
-154 67 0
-154 22 0
-154 60 0
-154 -31 0
-154 -81 0
-154 -95 0
-154 -15 0
-154 -74 0
154 63 58 -67 -22 -60 31 81 95 15 74 0
-155 -35 0
-155 -87 0
-155 -83 0
-155 -85 0
-155 12 0
-155 60 0
-155 2 0
-155 -24 0
-155 -40 0
-155 -9 0
155 35 87 83 85 -12 -60 -2 24 40 9 0
-156 -64 0
-156 -85 0
-156 51 0
-156 35 0
-156 -54 0
-156 97 0
-156 -92 0
-156 81 0
-156 -72 0
-156 -30 0
156 64 85 -51 -35 54 -97 92 -81 72 30 0
-157 -91 0
-157 9 0
-157 -55 0
-157 -46 0
-157 -95 0
-157 -88 0
-157 -22 0
-157 93 0
-157 -32 0
-157 -77 0
157 91 -9 55 46 95 88 22 -93 32 77 0
-158 13 0
-158 -63 0
-158 -77 0
-158 38 0
-158 53 0
-158 -82 0
-158 99 0
-158 -41 0
-158 -8 0
-158 93 0
158 -13 63 77 -38 -53 82 -99 41 8 -93 0
-159 11 0
-159 -16 0
-159 -27 0
-159 -79 0
-159 -71 0
-159 29 0
-159 -22 0
-159 72 0
-159 -77 0
-159 -98 0
159 -11 16 27 79 71 -29 22 -72 77 98 0
-160 -22 0
-160 -41 0
-160 -98 0
-160 -81 0
-160 91 0
-160 92 0
-160 -33 0
-160 48 0
-160 -37 0
-160 21 0
160 22 41 98 81 -91 -92 33 -48 37 -21 0
151 152 153 154 155 156 157 158 159 160 0
-161 91 0
-161 4 0
-161 -72 0
-161 -20 0
-161 71 0
-161 -12 0
-161 -10 0
-161 -18 0
-161 85 0
-161 26 0
161 -91 -4 72 20 -71 12 10 18 -85 -26 0
-162 14 0
-162 41 0
-162 -15 0
-162 -90 0
-162 73 0
-162 -25 0
-162 -18 0
-162 97 0
-162 99 0
-162 52 0
162 -14 -41 15 90 -73 25 18 -97 -99 -52 0
-163 72 0
-163 2 0
-163 30 0
-163 94 0
-163 -42 0
-163 -49 0
-163 -56 0
-163 -45 0
-163 90 0
-163 -23 0
163 -72 -2 -30 -94 42 49 56 45 -90 23 0
-164 -88 0
-164 66 0
-164 -38 0
-164 79 0
-164 77 0
-164 -86 0
-164 -32 0
-164 39 0
-164 41 0
-164 54 0
164 88 -66 38 -79 -77 86 32 -39 -41 -54 0
-165 -47 0
-165 8 0
-165 -11 0
-165 10 0
-165 -44 0
-165 -21 0
-165 69 0
-165 -41 0
-165 -9 0
-165 -52 0
165 47 -8 11 -10 44 21 -69 41 9 52 0
-166 74 0
-166 54 0
-166 87 0
-166 -26 0
-166 -52 0
-166 64 0
-166 -77 0
-166 -79 0
-166 -31 0
-166 -95 0
166 -74 -54 -87 26 52 -64 77 79 31 95 0
-167 22 0
-167 -91 0
-167 40 0
-167 89 0
-167 -31 0
-167 -6 0
-167 -62 0
-167 -5 0
-167 -26 0
-167 48 0
167 -22 91 -40 -89 31 6 62 5 26 -48 0
-168 84 0
-168 50 0
-168 -20 0
-168 -89 0
-168 -64 0
-168 48 0
-168 -74 0
-168 46 0
-168 65 0
-168 58 0
168 -84 -50 20 89 64 -48 74 -46 -65 -58 0
-169 7 0
-169 46 0
-169 73 0
-169 -26 0
-169 -60 0
-169 33 0
-169 -87 0
-169 3 0
-169 -78 0
-169 -48 0
169 -7 -46 -73 26 60 -33 87 -3 78 48 0
-170 10 0
-170 14 0
-170 40 0
-170 90 0
-170 -12 0
-170 60 0
-170 -50 0
-170 -68 0
-170 3 0
-170 5 0
170 -10 -14 -40 -90 12 -60 50 68 -3 -5 0
161 162 163 164 165 166 167 168 169 170 0
-171 -48 0
-171 11 0
-171 -56 0
-171 -94 0
-171 23 0
-171 95 0
-171 77 0
-171 -7 0
-171 19 0
-171 85 0
171 48 -11 56 94 -23 -95 -77 7 -19 -85 0
-172 39 0
-172 81 0
-172 -64 0
-172 -90 0
-172 -18 0
-172 10 0
-172 -84 0
-172 61 0
-172 31 0
-172 -50 0
172 -39 -81 64 90 18 -10 84 -61 -31 50 0
-173 32 0
-173 78 0
-173 -7 0
-173 -3 0
-173 -51 0
-173 10 0
-173 86 0
-173 50 0
-173 -37 0
-173 40 0
173 -32 -78 7 3 51 -10 -86 -50 37 -40 0
-174 -32 0
-174 -36 0
-174 -88 0
-174 -82 0
-174 63 0
-174 86 0
-174 -2 0
-174 37 0
-174 -78 0
-174 4 0
174 32 36 88 82 -63 -86 2 -37 78 -4 0
-175 100 0
-175 -80 0
-175 6 0
-175 -49 0
-175 96 0
-175 89 0
-175 65 0
-175 -24 0
-175 -28 0
-175 25 0
175 -100 80 -6 49 -96 -89 -65 24 28 -25 0
-176 -66 0
-176 72 0
-176 44 0
-176 -32 0
-176 -30 0
-176 -45 0
-176 -87 0
-176 -82 0
-176 21 0
-176 25 0
176 66 -72 -44 32 30 45 87 82 -21 -25 0
-177 -66 0
-177 7 0
-177 21 0
-177 -19 0
-177 58 0
-177 -95 0
-177 49 0
-177 54 0
-177 74 0
-177 -15 0
177 66 -7 -21 19 -58 95 -49 -54 -74 15 0
-178 47 0
-178 -42 0
-178 31 0
-178 -53 0
-178 -50 0
-178 90 0
-178 -98 0
-178 -27 0
-178 32 0
-178 -64 0
178 -47 42 -31 53 50 -90 98 27 -32 64 0
-179 -89 0
-179 68 0
-179 -5 0
-179 -87 0
-179 -77 0
-179 49 0
-179 -13 0
-179 52 0
-179 57 0
-179 -21 0
179 89 -68 5 87 77 -49 13 -52 -57 21 0
-180 -81 0
-180 64 0
-180 68 0
-180 -45 0
-180 -30 0
-180 -15 0
-180 -83 0
-180 -76 0
-180 -8 0
-180 88 0
180 81 -64 -68 45 30 15 83 76 8 -88 0
171 172 173 174 175 176 177 178 179 180 0
-181 55 0
-181 -95 0
-181 72 0
-181 14 0
-181 -37 0
-181 10 0
-181 -30 0
-181 -13 0
-181 -44 0
-181 -36 0
181 -55 95 -72 -14 37 -10 30 13 44 36 0
-182 81 0
-182 -60 0
-182 44 0
-182 73 0
-182 78 0
-182 12 0
-182 100 0
-182 48 0
-182 41 0
-182 22 0
182 -81 60 -44 -73 -78 -12 -100 -48 -41 -22 0
-183 64 0
-183 -7 0
-183 -100 0
-183 72 0
-183 92 0
-183 -88 0
-183 -73 0
-183 25 0
-183 -71 0
-183 -12 0
183 -64 7 100 -72 -92 88 73 -25 71 12 0
-184 -7 0
-184 -93 0
-184 -8 0
-184 88 0
-184 -6 0
-184 13 0
-184 -16 0
-184 27 0
-184 22 0
-184 -23 0
184 7 93 8 -88 6 -13 16 -27 -22 23 0
-185 86 0
-185 -21 0
-185 92 0
-185 -95 0
-185 -9 0
-185 -70 0
-185 4 0
-185 31 0
-185 44 0
-185 -3 0
185 -86 21 -92 95 9 70 -4 -31 -44 3 0
-186 67 0
-186 -76 0
-186 -29 0
-186 -3 0
-186 -78 0
-186 -6 0
-186 21 0
-186 18 0
-186 -12 0
-186 -23 0
186 -67 76 29 3 78 6 -21 -18 12 23 0
-187 -9 0
-187 -93 0
-187 -36 0
-187 84 0
-187 -48 0
-187 52 0
-187 28 0
-187 26 0
-187 -58 0
-187 22 0
187 9 93 36 -84 48 -52 -28 -26 58 -22 0
-188 90 0
-188 29 0
-188 6 0
-188 -37 0
-188 -15 0
-188 -64 0
-188 -32 0
-188 -22 0
-188 -58 0
-188 -87 0
188 -90 -29 -6 37 15 64 32 22 58 87 0
-189 47 0
-189 -100 0
-189 -5 0
-189 55 0
-189 -83 0
-189 38 0
-189 -20 0
-189 -69 0
-189 -56 0
-189 88 0
189 -47 100 5 -55 83 -38 20 69 56 -88 0
-190 83 0
-190 -63 0
-190 -9 0
-190 -93 0
-190 -12 0
-190 84 0
-190 37 0
-190 35 0
-190 -90 0
-190 80 0
190 -83 63 9 93 12 -84 -37 -35 90 -80 0
181 182 183 184 185 186 187 188 189 190 0
-191 -96 0
-191 27 0
-191 -65 0
-191 -30 0
-191 58 0
-191 -89 0
-191 -42 0
-191 -82 0
-191 -59 0
-191 60 0
191 96 -27 65 30 -58 89 42 82 59 -60 0
-192 -7 0
-192 55 0
-192 44 0
-192 -97 0
-192 -68 0
-192 5 0
-192 80 0
-192 -83 0
-192 -54 0
-192 98 0
192 7 -55 -44 97 68 -5 -80 83 54 -98 0
-193 -82 0
-193 -78 0
-193 77 0
-193 -71 0
-193 74 0
-193 52 0
-193 3 0
-193 -76 0
-193 -24 0
-193 10 0
193 82 78 -77 71 -74 -52 -3 76 24 -10 0
-194 35 0
-194 20 0
-194 -75 0
-194 42 0
-194 -86 0
-194 -94 0
-194 -99 0
-194 -8 0
-194 -26 0
-194 -16 0
194 -35 -20 75 -42 86 94 99 8 26 16 0
-195 51 0
-195 32 0
-195 -37 0
-195 35 0
-195 83 0
-195 93 0
-195 -58 0
-195 88 0
-195 -66 0
-195 -68 0
195 -51 -32 37 -35 -83 -93 58 -88 66 68 0
-196 27 0
-196 -61 0
-196 -16 0
-196 -49 0
-196 47 0
-196 -81 0
-196 -41 0
-196 100 0
-196 -53 0
-196 -35 0
196 -27 61 16 49 -47 81 41 -100 53 35 0
-197 -12 0
-197 -53 0
-197 59 0
-197 67 0
-197 92 0
-197 -41 0
-197 -20 0
-197 -47 0
-197 38 0
-197 98 0
197 12 53 -59 -67 -92 41 20 47 -38 -98 0
-198 -6 0
-198 59 0
-198 25 0
-198 -82 0
-198 48 0
-198 -69 0
-198 56 0
-198 -52 0
-198 15 0
-198 -37 0
198 6 -59 -25 82 -48 69 -56 52 -15 37 0
-199 54 0
-199 80 0
-199 93 0
-199 -97 0
-199 33 0
-199 47 0
-199 -73 0
-199 -5 0
-199 46 0
-199 100 0
199 -54 -80 -93 97 -33 -47 73 5 -46 -100 0
-200 16 0
-200 36 0
-200 -86 0
-200 20 0
-200 19 0
-200 -68 0
-200 -4 0
-200 90 0
-200 -98 0
-200 46 0
200 -16 -36 86 -20 -19 68 4 -90 98 -46 0
191 192 193 194 195 196 197 198 199 200 0
